#insiemi
set J := 1 2 3 4 5 6;
set D := x y z;
set R= uno due tre quattro cinque sei;

#parametri
param s :=
[1, *, *]: uno due tre quattro cinque sei:=
	x	 162 162 141 141 115 115 
	y  141 115 162 115 162 141
	z 115 141 115 162 141 162
	
[2, *, *]: uno due tre quattro cinque sei:=
	x 499 499 191 191 95 95 
	y 191 95 499 95 499 191
	z 95 191 95 499 191 499
	

[3, *, *]: uno due tre quattro cinque sei:=
	x	156 156 126 126 106 106
	y  126 106 156 106 156 126
	z  106 126 106 156 126 156

[4, *, *]: uno due tre quattro cinque sei:=
	x	156 156 126 126 106 106
	y  126 106 156 106 156 126
	z  106 126 106 156 126 156

[5, *, *]: uno due tre quattro cinque sei:=
	x 279 279 273 273 164 164
	y 273 164 279 164 273 279
	z 164 273 164 279 269 273

[6, *, *]: uno due tre quattro cinque sei:=
	x 279 279 273 273 164 164
	y 273 164 279 164 273 279
	z 164 273 164 279 269 273
;


param po :=
1 24 
2 5
3 8
4 9
5 20 
6 22
;

param pu :=
1 1
2 1 
3 1
4 1
5 1
6 1
;

param S :=
x	536
y 1063
z 372

;

param BigM:= 10000000000;